data/solutions/recovery/degenerate/intermediate/flexible/degenerate_intermediate_instance38/50.sol
Elapsed time: 100.12
Upper bound: 292530.0
Planning weighted value: 14523853909.0
C[0]=292530.0
C[1]=292415.0
C[2]=292256.0
C[3]=292043.0
C[4]=292024.0
C[5]=291791.0
C[6]=291440.0
C[7]=291433.0
C[8]=291259.0
C[9]=291108.0
C[10]=290765.0
C[11]=288263.0
C[12]=287091.0
C[13]=0.0
C[14]=0.0
C[15]=0.0
y[0]=8
y[1]=2
y[2]=12
y[3]=10
y[4]=9
y[5]=3
y[6]=12
y[7]=8
y[8]=7
y[9]=0
y[10]=1
y[11]=3
y[12]=0
y[13]=9
y[14]=8
y[15]=6
y[16]=9
y[17]=1
y[18]=12
y[19]=10
y[20]=0
y[21]=5
y[22]=8
y[23]=11
y[24]=10
y[25]=2
y[26]=4
y[27]=7
y[28]=5
y[29]=4
y[30]=12
y[31]=7
y[32]=4
y[33]=1
y[34]=1
y[35]=4
y[36]=6
y[37]=4
y[38]=5
y[39]=3
y[40]=7
y[41]=10
y[42]=11
y[43]=0
y[44]=11
y[45]=2
y[46]=2
y[47]=2
y[48]=1
y[49]=6
y[50]=10
y[51]=0
y[52]=10
y[53]=7
y[54]=11
y[55]=3
y[56]=9
y[57]=10
y[58]=1
y[59]=8
y[60]=4
y[61]=6
y[62]=11
y[63]=5
y[64]=6
y[65]=9
