data/solutions/recovery/degenerate/intermediate/flexible/degenerate_intermediate_instance38/50.log

Log started (V12.6.3.0) Sun Apr 22 00:35:28 2018

New value for default parallel thread count: 1

Problem '/tmp/tmpRt7iTv.pyomo.lp' read.
Read time = 0.02 sec. (0.71 ticks)

Problem name         : /tmp/tmpRt7iTv.pyomo.lp
Objective sense      : Minimize
Variables            :    1074  [Nneg: 1,  Binary: 1056,  General Integer: 17]
Objective nonzeros   :       1
Linear constraints   :     168  [Less: 82,  Equal: 86]
  Nonzeros           :   50853
  RHS nonzeros       :     133

Variables            : Min LB: 0.000000         Max UB: 1.000000       
Objective nonzeros   : Min   : 1.000000         Max   : 1.000000       
Linear constraints   :
  Nonzeros           : Min   : 1.000000         Max   : 117484.0       
  RHS nonzeros       : Min   : 1.000000         Max   : 7.000000       
Tried aggregator 2 times.
MIP Presolve eliminated 75 rows and 214 columns.
Aggregator did 14 substitutions.
Reduced MIP has 79 rows, 846 columns, and 2279 nonzeros.
Reduced MIP has 845 binaries, 1 generals, 0 SOSs, and 0 indicators.
Presolve time = 0.01 sec. (9.70 ticks)
Found incumbent of value 3784418.000000 after 0.01 sec. (13.47 ticks)
Probing time = 0.00 sec. (1.53 ticks)
Cover probing fixed 0 vars, tightened 9 bounds.
Tried aggregator 1 time.
Reduced MIP has 79 rows, 846 columns, and 2279 nonzeros.
Reduced MIP has 845 binaries, 1 generals, 0 SOSs, and 0 indicators.
Presolve time = 0.00 sec. (1.32 ticks)
Probing time = 0.00 sec. (1.04 ticks)
Clique table members: 65.
MIP emphasis: balance optimality and feasibility.
MIP search method: dynamic search.
Parallel mode: none, using 1 thread.
Root relaxation solution time = 0.00 sec. (0.81 ticks)

        Nodes                                         Cuts/
   Node  Left     Objective  IInf  Best Integer    Best Bound    ItCnt     Gap

*     0+    0                      3784418.0000   117484.0000            96.90%
      0     0   291109.0769    20  3784418.0000   291109.0769       30   92.31%
*     0+    0                       339397.0000   291109.0769            14.23%
      0     0   291110.0000    24   339397.0000      Fract: 9       58   14.23%
      0     0   291110.0000    30   339397.0000      Cuts: 29      125   14.23%
*     0+    0                       332076.0000   291110.0000            12.34%
*     0+    0                       322187.0000   291110.0000             9.65%
*     0+    0                       321505.0000   291110.0000             9.45%
*     0+    0                       314422.0000   291110.0000             7.41%
      0     2   291110.0000    21   314422.0000   291110.0000      125    7.41%
Elapsed time = 0.05 sec. (58.85 ticks, tree = 0.01 MB, solutions = 5)
*    10+   10                       308698.0000   291110.0000             5.70%
*    70+   69                       308257.0000   291110.0000             5.56%
*   170+  147                       307414.0000   291110.0000             5.30%
*   170+  147                       306504.0000   291110.0000             5.02%
*  1000+  671                       302652.0000   291110.0000             3.81%
   1000   673   291110.0000    23   302652.0000   291110.0000     4381    3.81%
   1001   674   291110.0000    22   302652.0000   291110.0000     4383    3.81%
   1002   675   291110.0000    23   302652.0000   291110.0000     4385    3.81%
   1003   676   291110.0000    22   302652.0000   291110.0000     4386    3.81%
   1004   677   291110.0000    22   302652.0000   291110.0000     4389    3.81%
   1005   678   291110.0000    23   302652.0000   291110.0000     4404    3.81%
   1006   679   291110.0000    24   302652.0000   291110.0000     4408    3.81%
   1007   680   291110.0000    24   302652.0000   291110.0000     4409    3.81%
   1008   681   291110.0000    24   302652.0000   291110.0000     4411    3.81%
*  1110+  769                       302239.0000   291110.0000             3.68%
*  1111+  770                       301871.0000   291110.0000             3.56%
*  1111+  723                       300732.0000   291110.0000             3.20%
*  1213+  497                       299455.0000   291110.0000             2.79%
   1270   500   291110.0000    20   299455.0000   291110.0000     6135    2.79%
Elapsed time = 0.79 sec. (1012.60 ticks, tree = 0.89 MB, solutions = 14)
*  1913+  555                       298663.0000   291110.0000             2.53%
*  1913+  540                       298509.0000   291110.0000             2.48%
*  1913+  529                       297574.0000   291110.0000             2.17%
*  1913+  519                       296860.0000   291110.0000             1.94%
*  1913+  513                       296069.0000   291110.0000             1.67%
*  2013+  582                       295760.0000   291110.0000             1.57%
*  2113+  636                       294923.0000   291110.0000             1.29%
   2113   638   291287.0000    20   294923.0000   291110.0000     9950    1.29%
   2114   639   291287.0000    21   294923.0000   291110.0000     9953    1.29%
   2115   639   291287.0000    21   294923.0000   291110.0000     9954    1.29%
   2116   640   291287.0000    21   294923.0000   291110.0000     9955    1.29%
   2117   640   291287.0000    21   294923.0000   291110.0000     9956    1.29%
   2118   641   291287.0000    21   294923.0000   291110.0000     9957    1.29%
   2119   642   291287.0000    21   294923.0000   291110.0000     9958    1.29%
   2120   643   291287.0000    20   294923.0000   291110.0000     9963    1.29%
   2121   644   291287.0000    20   294923.0000   291110.0000     9969    1.29%
   2122   645   291287.0000    21   294923.0000   291110.0000     9971    1.29%
Elapsed time = 1.60 sec. (2039.81 ticks, tree = 1.05 MB, solutions = 21)
   3994  2213   291110.0000    34   294923.0000   291110.0000    25958    1.29%
   3995  2214   291110.0000    32   294923.0000   291110.0000    25960    1.29%
   3996  2215   291110.0000    31   294923.0000   291110.0000    25970    1.29%
   3997  2216   291110.0000    33   294923.0000   291110.0000    25977    1.29%
   3998  2217   291110.0000    32   294923.0000   291110.0000    25980    1.29%
   3999  2218   291110.0000    36   294923.0000   291110.0000    25985    1.29%
   4000  2219   291110.0000    34   294923.0000   291110.0000    25986    1.29%
   4001  2220   291110.0000    31   294923.0000   291110.0000    25988    1.29%
   4002  2221   291110.0000    35   294923.0000   291110.0000    25996    1.29%
   4003  2222   291110.0000    36   294923.0000   291110.0000    26002    1.29%
Elapsed time = 2.27 sec. (2995.70 ticks, tree = 4.36 MB, solutions = 21)
   4822  2916   293492.6149    48   294923.0000   291110.0000    43374    1.29%
   4823  2917   293492.6149    48   294923.0000   291110.0000    43375    1.29%
   4824  2918   293532.6300    47   294923.0000   291110.0000    43397    1.29%
   4825  2919   293535.9733    51   294923.0000   291110.0000    43403    1.29%
   4826  2918        cutoff         294923.0000   291110.0000    43418    1.29%
   4827  2919   293536.0853    51   294923.0000   291110.0000    43420    1.29%
   4828  2920   293541.9839    47   294923.0000   291110.0000    43429    1.29%
   4829  2921   293544.1164    47   294923.0000   291110.0000    43435    1.29%
   4830  2922   293615.7179    48   294923.0000   291110.0000    43450    1.29%
   4831  2921        cutoff         294923.0000   291110.0000    43455    1.29%
Elapsed time = 2.88 sec. (3955.52 ticks, tree = 6.31 MB, solutions = 21)
   5444  3473   291110.0000    61   294923.0000   291110.0000    56944    1.29%
   5445  3474   291110.0000    60   294923.0000   291110.0000    56950    1.29%
   5446  3475   291110.0000    62   294923.0000   291110.0000    56964    1.29%
   5447  3476   291110.0000    62   294923.0000   291110.0000    56966    1.29%
   5448  3477   291110.0000    68   294923.0000   291110.0000    57047    1.29%
   5449  3478   291110.0000    67   294923.0000   291110.0000    57076    1.29%
   5450  3479   291110.0000    70   294923.0000   291110.0000    57087    1.29%
   5451  3480   291110.0000    72   294923.0000   291110.0000    57096    1.29%
   5452  3481   291110.0000    72   294923.0000   291110.0000    57098    1.29%
   5453  3482   291110.0000    70   294923.0000   291110.0000    57126    1.29%
Elapsed time = 3.48 sec. (4921.38 ticks, tree = 8.41 MB, solutions = 21)
   6153  4065   291345.2538    81   294923.0000   291110.0000    73567    1.29%
   6154  4066   291345.4868    81   294923.0000   291110.0000    73569    1.29%
   6155  4067   291345.5044    85   294923.0000   291110.0000    73572    1.29%
   6156  4068   291345.5889    85   294923.0000   291110.0000    73573    1.29%
   6157  4069   291359.5456    79   294923.0000   291110.0000    73602    1.29%
   6158  4070   291361.2753    81   294923.0000   291110.0000    73613    1.29%
   6159  4071   291414.3196    80   294923.0000   291110.0000    73695    1.29%
   6160  4072   291934.3199    74   294923.0000   291110.0000    73783    1.29%
   6161  4073   291938.4778    75   294923.0000   291110.0000    73789    1.29%
   6162  4074   291938.9146    76   294923.0000   291110.0000    73792    1.29%
Elapsed time = 4.13 sec. (5934.57 ticks, tree = 10.92 MB, solutions = 21)
   6796  4655   291110.0000    87   294923.0000   291110.0000    90047    1.29%
   6797  4656   291110.0000    72   294923.0000   291110.0000    90076    1.29%
   6798  4657   291110.0000    81   294923.0000   291110.0000    90201    1.29%
   6799  4658   291110.0000    69   294923.0000   291110.0000    90247    1.29%
   6800  4659   291110.0000    65   294923.0000   291110.0000    90265    1.29%
   6801  4660   291110.0000    65   294923.0000   291110.0000    90269    1.29%
   6802  4661   291110.0000    65   294923.0000   291110.0000    90296    1.29%
   6803  4662   291110.0000    78   294923.0000   291110.0000    90478    1.29%
   6804  4663   291110.0000    70   294923.0000   291110.0000    90490    1.29%
   6805  4664   291110.0000    73   294923.0000   291110.0000    90513    1.29%
Elapsed time = 4.75 sec. (6919.16 ticks, tree = 13.66 MB, solutions = 21)
   7299  5082   293614.0378    73   294923.0000   291110.0000   104650    1.29%
   7300  5083   293614.0378    71   294923.0000   291110.0000   104653    1.29%
   7301  5084   293641.3663    71   294923.0000   291110.0000   104682    1.29%
   7302  5085   293668.6728    70   294923.0000   291110.0000   104701    1.29%
   7303  5086   293681.4397    69   294923.0000   291110.0000   104704    1.29%
   7304  5087   293746.8825    70   294923.0000   291110.0000   104716    1.29%
   7305  5088   293748.5400    72   294923.0000   291110.0000   104722    1.29%
   7306  5089   293748.7870    70   294923.0000   291110.0000   104725    1.29%
   7307  5090   293907.9690    60   294923.0000   291110.0000   104771    1.29%
   7308  5091   293915.0885    59   294923.0000   291110.0000   104776    1.29%
Elapsed time = 5.37 sec. (7898.31 ticks, tree = 15.73 MB, solutions = 21)
   7586  5281   294006.0311    57   294923.0000   291110.0000   118120    1.29%
   7587  5282   294272.1698    50   294923.0000   291110.0000   118181    1.29%
   7588  5283   294272.2177    50   294923.0000   291110.0000   118182    1.29%
   7589  5284   294289.0634    49   294923.0000   291110.0000   118186    1.29%
   7590  5285   294289.0634    49   294923.0000   291110.0000   118188    1.29%
   7591  5286   294373.0447    48   294923.0000   291110.0000   118227    1.29%
   7592  5287   294378.6041    46   294923.0000   291110.0000   118238    1.29%
   7593  5288   294441.9188    53   294923.0000   291110.0000   118262    1.29%
   7594  5289   294441.9188    53   294923.0000   291110.0000   118263    1.29%
   7595  5290   294447.3411    51   294923.0000   291110.0000   118279    1.29%
Elapsed time = 5.97 sec. (8864.96 ticks, tree = 16.88 MB, solutions = 21)
   8098  5733   293556.3631    57   294923.0000   291110.0000   130049    1.29%
   8099  5734   293600.6173    58   294923.0000   291110.0000   130061    1.29%
   8100  5735   293658.3487    60   294923.0000   291110.0000   130069    1.29%
   8101  5736   293685.3980    53   294923.0000   291110.0000   130079    1.29%
   8102  5737   293704.5340    55   294923.0000   291110.0000   130083    1.29%
   8103  5738   293705.2963    53   294923.0000   291110.0000   130085    1.29%
   8104  5739   293712.2194    54   294923.0000   291110.0000   130092    1.29%
   8105  5740   293713.3125    52   294923.0000   291110.0000   130094    1.29%
   8106  5741   293722.3155    57   294923.0000   291110.0000   130101    1.29%
   9245  6724   291115.1555    71   294923.0000   291110.0000   167742    1.29%
Elapsed time = 8.34 sec. (12679.67 ticks, tree = 25.40 MB, solutions = 21)
*  9913+ 7334                       294896.0000   291110.0000             1.28%
  10969  8258   291134.8067    77   294896.0000   291110.0000   214687    1.28%
  10970  8259   291135.4986    77   294896.0000   291110.0000   214701    1.28%
  10971  8260   291135.5066    78   294896.0000   291110.0000   214702    1.28%
  10972  8261   291148.6396    79   294896.0000   291110.0000   214734    1.28%
  10973  8262   291202.2886    77   294896.0000   291110.0000   214821    1.28%
  10974  8263   291202.2920    77   294896.0000   291110.0000   214822    1.28%
  10975  8264   291202.3019    78   294896.0000   291110.0000   214825    1.28%
  10976  8265   291202.3269    77   294896.0000   291110.0000   214828    1.28%
  10977  8266   291202.4169    74   294896.0000   291110.0000   214829    1.28%
  10978  8267   291204.6421    74   294896.0000   291110.0000   214851    1.28%
Elapsed time = 10.75 sec. (16510.28 ticks, tree = 35.31 MB, solutions = 22)
* 11293+ 8126                       294338.0000   291110.0000             1.10%
* 11713+ 7697                       293769.0000   291110.0000             0.91%
  11728  7714   291720.7815    60   293769.0000   291110.0000   240457    0.91%
  11729  7715   291903.1454    60   293769.0000   291110.0000   240761    0.91%
  11730  7716   291440.0000    37   293769.0000   291110.0000   240813    0.91%
  11731  7717   291440.0000    46   293769.0000   291110.0000   240900    0.91%
  11732  7718   291440.0000    47   293769.0000   291110.0000   240937    0.91%
  11733  7719   292469.0631    54   293769.0000   291110.0000   241213    0.91%
  11734  7720   291440.0000    57   293769.0000   291110.0000   241362    0.91%
  11735  7721   291440.0000    43   293769.0000   291110.0000   241405    0.91%
  11736  7722   291440.0000    38   293769.0000   291110.0000   241407    0.91%
  11737  7723   291440.0000    44   293769.0000   291110.0000   241455    0.91%
Elapsed time = 13.65 sec. (20371.25 ticks, tree = 33.87 MB, solutions = 24)
  13649  9468   291110.0000    52   293769.0000   291110.0000   300313    0.91%
  13650  9469   291110.0000    49   293769.0000   291110.0000   300337    0.91%
  13651  9470   291110.0000    70   293769.0000   291110.0000   300537    0.91%
  13652  9471   291110.0000    61   293769.0000   291110.0000   300544    0.91%
  13653  9472   291110.0000    69   293769.0000   291110.0000   300774    0.91%
  13654  9473   291110.0000    66   293769.0000   291110.0000   300776    0.91%
  13655  9474   291110.0000    64   293769.0000   291110.0000   300782    0.91%
  13656  9475   291110.0000    68   293769.0000   291110.0000   300866    0.91%
  13657  9476   291110.0000    67   293769.0000   291110.0000   301163    0.91%
  13658  9477   291110.0000    64   293769.0000   291110.0000   301165    0.91%
Elapsed time = 16.10 sec. (24229.45 ticks, tree = 44.88 MB, solutions = 24)
  15636 11143   292427.5516    66   293769.0000   291110.0000   359376    0.91%
  15637 11144   292526.1540    74   293769.0000   291110.0000   359392    0.91%
  15638 11145   292534.2298    70   293769.0000   291110.0000   359400    0.91%
  15639 11146   292535.4023    71   293769.0000   291110.0000   359405    0.91%
  15640 11147   292564.5043    66   293769.0000   291110.0000   359428    0.91%
  15641 11148   292566.2520    65   293769.0000   291110.0000   359433    0.91%
  15642 11149   292566.5294    64   293769.0000   291110.0000   359435    0.91%
  15643 11150   292586.7952    68   293769.0000   291110.0000   359456    0.91%
  15644 11151   292593.7193    66   293769.0000   291110.0000   359476    0.91%
  15645 11151   293564.7852    58   293769.0000   291110.0000   359582    0.91%
Elapsed time = 18.52 sec. (28057.01 ticks, tree = 55.61 MB, solutions = 24)
  17234 12477   291110.0000    70   293769.0000   291110.0000   418263    0.91%
  17235 12478   291110.0000    68   293769.0000   291110.0000   418428    0.91%
  17236 12479   291110.0000    55   293769.0000   291110.0000   418446    0.91%
  17237 12480   291110.0000    55   293769.0000   291110.0000   418447    0.91%
  17238 12481   291110.0000    77   293769.0000   291110.0000   418576    0.91%
  17239 12482   291110.0000    62   293769.0000   291110.0000   418634    0.91%
  17240 12483   291110.0000    55   293769.0000   291110.0000   418647    0.91%
  17241 12484   291110.0000    67   293769.0000   291110.0000   418724    0.91%
  17242 12485   291110.0000    62   293769.0000   291110.0000   418726    0.91%
  17243 12486   291110.0000    62   293769.0000   291110.0000   418809    0.91%
Elapsed time = 20.99 sec. (31912.64 ticks, tree = 64.19 MB, solutions = 24)
* 18713+11551                       293069.0000   291110.0000             0.67%
  18713 11553   292628.0399    72   293069.0000   291110.0000   477054    0.67%
  18714 11554   292640.6507    71   293069.0000   291110.0000   477068    0.67%
  18715 11555   292642.7852    70   293069.0000   291110.0000   477079    0.67%
  18716 11556   292650.6628    73   293069.0000   291110.0000   477092    0.67%
  18717 11557   292654.9345    71   293069.0000   291110.0000   477125    0.67%
  18718 11558   292655.0866    71   293069.0000   291110.0000   477129    0.67%
  18719 11559   292665.9318    74   293069.0000   291110.0000   477152    0.67%
  18720 11558        cutoff         293069.0000   291110.0000   477173    0.67%
  18721 11557        cutoff         293069.0000   291110.0000   477220    0.67%
  18722 11558   291972.3381    85   293069.0000   291110.0000   477800    0.67%
Elapsed time = 23.65 sec. (36026.97 ticks, tree = 60.12 MB, solutions = 25)
  20094 12641   292980.7417    88   293069.0000   291110.0000   540783    0.67%
  20095 12640        cutoff         293069.0000   291110.0000   540814    0.67%
  20096 12639        cutoff         293069.0000   291110.0000   541117    0.67%
  20097 12638        cutoff         293069.0000   291110.0000   541510    0.67%
  20098 12637        cutoff         293069.0000   291110.0000   541781    0.67%
  20099 12636        cutoff         293069.0000   291110.0000   542104    0.67%
  20100 12635    infeasible         293069.0000   291110.0000   542262    0.67%
  20101 12634        cutoff         293069.0000   291110.0000   542572    0.67%
  20102 12633    infeasible         293069.0000   291110.0000   542596    0.67%
  20103 12632        cutoff         293069.0000   291110.0000   542958    0.67%
Elapsed time = 26.20 sec. (39991.62 ticks, tree = 67.26 MB, solutions = 25)
* 22613+14401                       292964.0000   291110.0000             0.63%
* 22813+14255                       292901.0000   291110.0000             0.61%
  22876 14310   291278.0010    32   292901.0000   291110.0000   600119    0.61%
  22877 14311   291298.2477    31   292901.0000   291110.0000   600124    0.61%
  22878 14312   291544.0610    31   292901.0000   291110.0000   600165    0.61%
  22879 14313   291545.6018    31   292901.0000   291110.0000   600168    0.61%
  22880 14312        cutoff         292901.0000   291110.0000   600183    0.61%
  22881 14313   291564.0584    31   292901.0000   291110.0000   600193    0.61%
  22882 14314   291645.3925    30   292901.0000   291110.0000   600204    0.61%
  22883 14315   291667.9978    26   292901.0000   291110.0000   600206    0.61%
  22884 14314        cutoff         292901.0000   291110.0000   600215    0.61%
  22885 14313        cutoff         292901.0000   291110.0000   600217    0.61%
Elapsed time = 28.75 sec. (43812.88 ticks, tree = 78.41 MB, solutions = 27)
  26623 17439   292697.9091    26   292901.0000   291110.0000   665555    0.61%
  26624 17440   292697.9091    29   292901.0000   291110.0000   665562    0.61%
  26625 17441   292697.9091    28   292901.0000   291110.0000   665564    0.61%
  26626 17442   292697.9091    29   292901.0000   291110.0000   665568    0.61%
  26627 17443   292697.9091    28   292901.0000   291110.0000   665570    0.61%
  26628 17444   292697.9091    28   292901.0000   291110.0000   665572    0.61%
  26629 17445   292697.9091    29   292901.0000   291110.0000   665577    0.61%
  26630 17446   292697.9091    29   292901.0000   291110.0000   665578    0.61%
  26631 17447   292697.9091    24   292901.0000   291110.0000   665584    0.61%
  26632 17448   292697.9091    25   292901.0000   291110.0000   665590    0.61%
Elapsed time = 31.48 sec. (47631.44 ticks, tree = 98.50 MB, solutions = 27)
  30770 21064   291786.4748    40   292901.0000   291110.0000   730805    0.61%
  30771 21065   291832.0489    41   292901.0000   291110.0000   730812    0.61%
  30772 21066   291904.9664    41   292901.0000   291110.0000   730825    0.61%
  30773 21067   291912.7713    38   292901.0000   291110.0000   730828    0.61%
  30774 21068   291916.9545    37   292901.0000   291110.0000   730830    0.61%
  30775 21069   291917.0051    38   292901.0000   291110.0000   730831    0.61%
  30776 21070   291984.6500    42   292901.0000   291110.0000   730847    0.61%
  30777 21071   292030.6037    43   292901.0000   291110.0000   730857    0.61%
  30778 21072   292031.0136    41   292901.0000   291110.0000   730858    0.61%
  30779 21073   292078.7912    39   292901.0000   291110.0000   730872    0.61%
Elapsed time = 34.00 sec. (51450.79 ticks, tree = 121.16 MB, solutions = 27)
* 34113+23183                       292757.0000   291110.0000             0.56%
  34170 23200   292325.9068    45   292757.0000   291110.0000   794561    0.56%
  34171 23201   292329.8723    39   292757.0000   291110.0000   794588    0.56%
  34172 23202   292333.3531    38   292757.0000   291110.0000   794589    0.56%
  34173 23203   292333.3531    38   292757.0000   291110.0000   794597    0.56%
  34174 23204   292333.3531    39   292757.0000   291110.0000   794598    0.56%
  34175 23205   292333.3531    39   292757.0000   291110.0000   794608    0.56%
  34176 23206   292333.3531    40   292757.0000   291110.0000   794616    0.56%
  34177 23207   292333.3531    40   292757.0000   291110.0000   794619    0.56%
  34178 23208   292333.3531    37   292757.0000   291110.0000   794624    0.56%
  34179 23209   292497.1234    37   292757.0000   291110.0000   794633    0.56%
Elapsed time = 37.46 sec. (55277.17 ticks, tree = 134.90 MB, solutions = 28)
* 36213+23155                       292530.0000   291110.0000             0.49%
  37677 24363   292408.9167    41   292530.0000   291110.0000   858674    0.49%
  37678 24362        cutoff         292530.0000   291110.0000   858677    0.49%
  37679 24363   292488.7602    42   292530.0000   291110.0000   858809    0.49%
  37680 24363   292493.2673    42   292530.0000   291110.0000   858810    0.49%
  37681 24362   292496.2031    41   292530.0000   291110.0000   858813    0.49%
  37682 24363   291110.0000    30   292530.0000   291110.0000   858856    0.49%
  37683 24364   291110.0000    34   292530.0000   291110.0000   858888    0.49%
  37684 24365   291110.0000    36   292530.0000   291110.0000   858895    0.49%
  37685 24366   291110.0000    32   292530.0000   291110.0000   858904    0.49%
  37686 24367   291110.0000    36   292530.0000   291110.0000   858915    0.49%
Elapsed time = 41.08 sec. (59103.88 ticks, tree = 142.94 MB, solutions = 29)
  40984 26900   291389.0602    44   292530.0000   291110.0000   921241    0.49%
  40985 26899        cutoff         292530.0000   291110.0000   921254    0.49%
  40986 26898        cutoff         292530.0000   291110.0000   921278    0.49%
  40987 26897        cutoff         292530.0000   291110.0000   921349    0.49%
  40988 26898   291850.1667    38   292530.0000   291110.0000   921463    0.49%
  40989 26897        cutoff         292530.0000   291110.0000   921466    0.49%
  40990 26898   291850.1667    35   292530.0000   291110.0000   921472    0.49%
  40991 26899   291850.1667    33   292530.0000   291110.0000   921473    0.49%
  40992 26900   291858.2096    39   292530.0000   291110.0000   921533    0.49%
  40993 26899        cutoff         292530.0000   291110.0000   921545    0.49%
Elapsed time = 44.70 sec. (62947.70 ticks, tree = 158.80 MB, solutions = 29)
  44168 29345   291113.7673    41   292530.0000   291110.0000   983206    0.49%
  44169 29346   291113.7673    41   292530.0000   291110.0000   983207    0.49%
  44170 29347   291113.7673    41   292530.0000   291110.0000   983216    0.49%
  44171 29348   291113.7673    42   292530.0000   291110.0000   983220    0.49%
  44172 29349   291113.7673    42   292530.0000   291110.0000   983222    0.49%
  44173 29350   291113.7673    42   292530.0000   291110.0000   983223    0.49%
  44174 29351   291158.8357    33   292530.0000   291110.0000   983258    0.49%
  44175 29352   291166.1357    34   292530.0000   291110.0000   983271    0.49%
  44176 29353   291166.3868    39   292530.0000   291110.0000   983275    0.49%
  44177 29354   291166.3868    36   292530.0000   291110.0000   983276    0.49%
Elapsed time = 48.27 sec. (66769.53 ticks, tree = 174.17 MB, solutions = 29)
  47392 31799   291358.4475    39   292530.0000   291110.0000  1047379    0.49%
  47393 31800   291358.4475    37   292530.0000   291110.0000  1047393    0.49%
  47394 31801   291358.4475    36   292530.0000   291110.0000  1047401    0.49%
  47395 31802   291358.4475    37   292530.0000   291110.0000  1047405    0.49%
  47396 31803   291358.4475    38   292530.0000   291110.0000  1047438    0.49%
  47397 31804   291358.4475    39   292530.0000   291110.0000  1047445    0.49%
  47398 31805   291358.4475    39   292530.0000   291110.0000  1047446    0.49%
  47399 31806   291545.4579    38   292530.0000   291110.0000  1047495    0.49%
  47400 31807   291553.2372    38   292530.0000   291110.0000  1047503    0.49%
  47401 31808   291553.2445    38   292530.0000   291110.0000  1047504    0.49%
Elapsed time = 51.90 sec. (70591.74 ticks, tree = 189.56 MB, solutions = 29)
  50811 34318   291110.0000    35   292530.0000   291110.0000  1110447    0.49%
  50812 34319   291110.0000    36   292530.0000   291110.0000  1110455    0.49%
  50813 34320   291116.5547    48   292530.0000   291110.0000  1110543    0.49%
  50814 34321   291146.9265    47   292530.0000   291110.0000  1110573    0.49%
  50815 34320        cutoff         292530.0000   291110.0000  1110576    0.49%
  50816 34319        cutoff         292530.0000   291110.0000  1110577    0.49%
  50817 34318        cutoff         292530.0000   291110.0000  1110636    0.49%
  50818 34319   291780.3636    37   292530.0000   291110.0000  1110734    0.49%
  50819 34320   291780.3636    36   292530.0000   291110.0000  1110739    0.49%
  50820 34320   291798.7587    36   292530.0000   291110.0000  1110755    0.49%
Elapsed time = 55.90 sec. (74424.28 ticks, tree = 206.29 MB, solutions = 29)
  54305 36471   291110.0000    32   292530.0000   291110.0000  1179257    0.49%
  54306 36472   291110.0000    34   292530.0000   291110.0000  1179269    0.49%
  54307 36473   291110.0000    33   292530.0000   291110.0000  1179270    0.49%
  54308 36474   291110.0000    34   292530.0000   291110.0000  1179298    0.49%
  54309 36475   291110.0000    34   292530.0000   291110.0000  1179304    0.49%
  54310 36476   291110.0000    34   292530.0000   291110.0000  1179314    0.49%
  54311 36477   291110.0000    33   292530.0000   291110.0000  1179320    0.49%
  54312 36478   291110.0000    34   292530.0000   291110.0000  1179334    0.49%
  54313 36479   291110.0000    35   292530.0000   291110.0000  1179367    0.49%
  54314 36480   291110.0000    34   292530.0000   291110.0000  1179392    0.49%
Elapsed time = 59.86 sec. (78526.64 ticks, tree = 219.90 MB, solutions = 29)
  57982 39301   291110.0000    39   292530.0000   291110.0000  1245212    0.49%
  57983 39302   291110.0000    33   292530.0000   291110.0000  1245215    0.49%
  57984 39303   291110.0000    37   292530.0000   291110.0000  1245232    0.49%
  57985 39304   291110.0000    37   292530.0000   291110.0000  1245261    0.49%
  57986 39305   291110.0000    37   292530.0000   291110.0000  1245262    0.49%
  57987 39306   292150.5996    41   292530.0000   291110.0000  1245514    0.49%
  57988 39305        cutoff         292530.0000   291110.0000  1245525    0.49%
  57989 39304        cutoff         292530.0000   291110.0000  1245529    0.49%
  57990 39303        cutoff         292530.0000   291110.0000  1245592    0.49%
  57991 39304   291360.0000    25   292530.0000   291110.0000  1245606    0.49%
Elapsed time = 63.37 sec. (82365.04 ticks, tree = 237.63 MB, solutions = 29)
  60816 41528   291110.0000    44   292530.0000   291110.0000  1305761    0.49%
  60817 41529   291110.0000    39   292530.0000   291110.0000  1305775    0.49%
  60818 41530   291110.0000    36   292530.0000   291110.0000  1305786    0.49%
  60819 41531   291110.0000    36   292530.0000   291110.0000  1305810    0.49%
  60820 41532   291110.0000    34   292530.0000   291110.0000  1305815    0.49%
  60821 41533   291110.0000    43   292530.0000   291110.0000  1305842    0.49%
  60822 41534   291110.0000    45   292530.0000   291110.0000  1305863    0.49%
  60823 41535   291110.0000    45   292530.0000   291110.0000  1305875    0.49%
  60824 41536   291110.0000    44   292530.0000   291110.0000  1305879    0.49%
  60825 41537   291735.8001    54   292530.0000   291110.0000  1306060    0.49%
Elapsed time = 66.93 sec. (86199.05 ticks, tree = 251.60 MB, solutions = 29)
  64543 44642   291430.9108    41   292530.0000   291110.0000  1373121    0.49%
  64544 44643   291458.9926    37   292530.0000   291110.0000  1373122    0.49%
  64545 44644   291713.5149    31   292530.0000   291110.0000  1373135    0.49%
  64546 44645   291714.2412    32   292530.0000   291110.0000  1373136    0.49%
  64547 44646   291714.2412    31   292530.0000   291110.0000  1373138    0.49%
  64548 44647   291715.3168    31   292530.0000   291110.0000  1373139    0.49%
  64549 44648   291742.6904    30   292530.0000   291110.0000  1373150    0.49%
  64550 44649   291743.4633    30   292530.0000   291110.0000  1373151    0.49%
  64551 44650   291743.5038    28   292530.0000   291110.0000  1373152    0.49%
  64552 44651   291743.5038    30   292530.0000   291110.0000  1373160    0.49%
Elapsed time = 70.53 sec. (90017.32 ticks, tree = 271.08 MB, solutions = 29)
  67789 47076   291119.4982    52   292530.0000   291110.0000  1435014    0.49%
  67790 47077   291930.8877    38   292530.0000   291110.0000  1435151    0.49%
  67791 47078   291119.6765    52   292530.0000   291110.0000  1435152    0.49%
  67792 47079   291225.0731    47   292530.0000   291110.0000  1435176    0.49%
  67793 47078        cutoff         292530.0000   291110.0000  1435181    0.49%
  67794 47079   291226.3490    46   292530.0000   291110.0000  1435187    0.49%
  67795 47080   291350.7222    41   292530.0000   291110.0000  1435219    0.49%
  67796 47081   291275.8263    46   292530.0000   291110.0000  1435244    0.49%
  67797 47082   291351.8303    40   292530.0000   291110.0000  1435245    0.49%
  67798 47083   291357.7661    41   292530.0000   291110.0000  1435250    0.49%
Elapsed time = 74.02 sec. (93845.36 ticks, tree = 286.34 MB, solutions = 29)
  71013 49696   291851.2161    36   292530.0000   291110.0000  1502235    0.49%
  71014 49695        cutoff         292530.0000   291110.0000  1502239    0.49%
  71015 49696   291110.0000    44   292530.0000   291110.0000  1502371    0.49%
  71016 49697   291110.0000    42   292530.0000   291110.0000  1502379    0.49%
  71017 49698   291110.0000    41   292530.0000   291110.0000  1502382    0.49%
  71018 49699   291110.0000    41   292530.0000   291110.0000  1502479    0.49%
  71019 49700   291110.0000    40   292530.0000   291110.0000  1502500    0.49%
  71020 49701   291122.4896    56   292530.0000   291110.0000  1502576    0.49%
  71021 49702   291130.7706    57   292530.0000   291110.0000  1502589    0.49%
  71022 49703   291132.0501    57   292530.0000   291110.0000  1502590    0.49%
Elapsed time = 77.80 sec. (97904.97 ticks, tree = 302.73 MB, solutions = 29)
  73641 51270   291391.1106    38   292530.0000   291110.0000  1571489    0.49%
  73642 51271   292092.3739    32   292530.0000   291110.0000  1571514    0.49%
  73643 51272   292095.5911    32   292530.0000   291110.0000  1571517    0.49%
  73644 51272   292180.8909    32   292530.0000   291110.0000  1571521    0.49%
  73645 51272   292180.8937    32   292530.0000   291110.0000  1571522    0.49%
  73646 51273   292184.6979    32   292530.0000   291110.0000  1571524    0.49%
  73647 51274   292213.8761    33   292530.0000   291110.0000  1571530    0.49%
  73648 51275   292220.5459    30   292530.0000   291110.0000  1571533    0.49%
  73649 51276   292220.5459    29   292530.0000   291110.0000  1571534    0.49%
  73650 51275        cutoff         292530.0000   291110.0000  1571538    0.49%
Elapsed time = 81.44 sec. (101725.51 ticks, tree = 312.64 MB, solutions = 29)
  76485 53550        cutoff         292530.0000   291110.0000  1635196    0.49%
  76486 53551   291110.0000    44   292530.0000   291110.0000  1635277    0.49%
  76487 53552   291110.0000    54   292530.0000   291110.0000  1635373    0.49%
  76488 53553   291110.0000    51   292530.0000   291110.0000  1635384    0.49%
  76489 53554   291110.0000    48   292530.0000   291110.0000  1635463    0.49%
  76490 53555   291110.0000    49   292530.0000   291110.0000  1635531    0.49%
  76491 53556   291110.0000    46   292530.0000   291110.0000  1635585    0.49%
  76492 53557   291110.0000    44   292530.0000   291110.0000  1635592    0.49%
  76493 53558   291110.0000    46   292530.0000   291110.0000  1635655    0.49%
  76494 53559   291110.0000    45   292530.0000   291110.0000  1635690    0.49%
Elapsed time = 85.00 sec. (105565.56 ticks, tree = 326.92 MB, solutions = 29)
  79801 56033   292385.0000    23   292530.0000   291110.0000  1705039    0.49%
  79802 56034   292385.0000    26   292530.0000   291110.0000  1705046    0.49%
  79803 56035   292385.0000    23   292530.0000   291110.0000  1705052    0.49%
  79804 56036   292385.0000    25   292530.0000   291110.0000  1705057    0.49%
  79805 56037   292385.0000    29   292530.0000   291110.0000  1705069    0.49%
  79806 56038   292385.0000    29   292530.0000   291110.0000  1705070    0.49%
  79807 56039   292385.0000    29   292530.0000   291110.0000  1705073    0.49%
  79808 56040   292385.0000    26   292530.0000   291110.0000  1705101    0.49%
  79809 56041   292385.0000    25   292530.0000   291110.0000  1705119    0.49%
  79810 56042   292385.0000    26   292530.0000   291110.0000  1705164    0.49%
Elapsed time = 88.63 sec. (109387.31 ticks, tree = 342.48 MB, solutions = 29)
  82139 57697   291714.7853    45   292530.0000   291110.0000  1753129    0.49%
  82140 57698   291714.7853    45   292530.0000   291110.0000  1753131    0.49%
  82141 57699   291714.7853    45   292530.0000   291110.0000  1753132    0.49%
  82142 57700   291714.7888    44   292530.0000   291110.0000  1753140    0.49%
  82143 57701   291716.0066    43   292530.0000   291110.0000  1753150    0.49%
  82144 57702   291716.0799    41   292530.0000   291110.0000  1753153    0.49%
  82145 57703   291716.0841    41   292530.0000   291110.0000  1753154    0.49%
  82146 57704   291848.8274    25   292530.0000   291110.0000  1753174    0.49%
  82147 57705   291848.8274    27   292530.0000   291110.0000  1753177    0.49%
  82148 57706   291848.8274    26   292530.0000   291110.0000  1753180    0.49%
Elapsed time = 91.98 sec. (113208.60 ticks, tree = 352.93 MB, solutions = 29)
  82918 58232   291112.1949    43   292530.0000   291110.0000  1770759    0.49%
  82919 58232   291524.7688    31   292530.0000   291110.0000  1770881    0.49%
  82920 58231    infeasible         292530.0000   291110.0000  1770896    0.49%
  82921 58232   291110.0000    34   292530.0000   291110.0000  1770929    0.49%
  82922 58233   291110.0000    35   292530.0000   291110.0000  1770950    0.49%
  82923 58234   291110.0000    31   292530.0000   291110.0000  1770960    0.49%
  82924 58235   291110.0000    36   292530.0000   291110.0000  1770977    0.49%
  82925 58236   291110.0000    36   292530.0000   291110.0000  1770978    0.49%
  82926 58237   291110.0000    37   292530.0000   291110.0000  1770979    0.49%
  82927 58238   291110.0000    40   292530.0000   291110.0000  1771017    0.49%
Elapsed time = 94.91 sec. (117042.62 ticks, tree = 356.27 MB, solutions = 29)
  85756 60160   291110.0000    46   292530.0000   291110.0000  1837280    0.49%
  85757 60161   291110.0000    44   292530.0000   291110.0000  1837289    0.49%
  85758 60162   291110.0000    39   292530.0000   291110.0000  1837306    0.49%
  85759 60163   291110.0000    45   292530.0000   291110.0000  1837354    0.49%
  85760 60164   291110.0000    47   292530.0000   291110.0000  1837405    0.49%
  85761 60165   291110.0000    46   292530.0000   291110.0000  1837430    0.49%
  85762 60166   291110.0000    49   292530.0000   291110.0000  1837496    0.49%
  85763 60167   291110.0000    48   292530.0000   291110.0000  1837497    0.49%
  85764 60168   291110.0000    44   292530.0000   291110.0000  1837529    0.49%
  85765 60169   291110.0000    39   292530.0000   291110.0000  1837574    0.49%
Elapsed time = 98.57 sec. (120873.42 ticks, tree = 368.39 MB, solutions = 29)

Cover cuts applied:  121
Mixed integer rounding cuts applied:  278
Gomory fractional cuts applied:  1

Root node processing (before b&c):
  Real time             =    0.05 sec. (59.01 ticks)
Sequential b&c:
  Real time             =   99.95 sec. (122370.20 ticks)
                          ------------
Total (root+branch&cut) =  100.00 sec. (122429.21 ticks)

Solution pool: 29 solutions saved.

MIP - Time limit exceeded, integer feasible:  Objective =  2.9253000000e+05
Current MIP best bound =  2.9111000000e+05 (gap = 1420, 0.49%)
Solution time =  100.00 sec.  Iterations = 1858843  Nodes = 86669 (60871)
Deterministic time = 122429.22 ticks  (1224.29 ticks/sec)


Incumbent solution written to file '/tmp/tmpIb8IJx.cplex.sol'.
